# 63124
param k := 6;
param n := 50;
param s := 1;
set E :=  (0,21) (1,26) (2,12) (3,6) (3,48) (4,35) (5,7) (5,15) (5,32) (5,34) (5,37) (5,41) (6,22) (7,19) (7,42) (8,33) (8,48) (9,15) (10,48) (11,30) (11,41) (12,49) (13,33) (14,17) (14,40) (16,21) (18,24) (19,23) (20,22) (20,40) (20,45) (21,26) (21,47) (22,42) (24,34) (25,46) (27,44) (27,45) (28,45) (28,49) (29,44) (30,38) (31,36) (31,45) (31,47) (34,40) (35,41) (35,48) (39,48) (41,43) (46,48);